from_node_id,to_node_id,driving_time_cost,length,time_stamp
0,1,1,10,0
0,11,0,0,0
1,2,4,40,0
1,3,5,50,0
1,7,11,100,0
1,8,7,70,0
1,9,5,50,0
1,11,1,10,0
2,1,4,40,0
2,3,5,50,0
2,9,7,70,0
3,1,5,50,0
3,2,5,50,0
3,4,4,40,0
3,9,5,50,0
3,10,1,10,0
4,3,4,40,0
4,5,5,50,0
4,6,6,60,0
4,9,4,40,0
5,4,5,50,0
5,6,4,40,0
5,9,5,50,0
6,4,6,60,0
6,5,4,40,0
6,7,4,40,0
6,8,6,60,0
6,9,4,40,0
7,1,11,100,0
7,6,4,40,0
7,8,4,40,0
7,9,5,50,0
8,1,7,70,0
8,6,6,60,0
8,7,4,40,0
9,1,5,50,0
9,2,7,70,0
9,3,5,50,0
9,4,4,40,0
9,5,5,50,0
9,6,4,40,0
9,7,5,50,0
10,3,1,10,0
0,1,1,10,1
0,11,0,0,1
1,2,4,40,1
1,3,5,50,1
1,7,12,100,1
1,8,8,70,1
1,9,5,50,1
1,11,1,10,1
2,1,4,40,1
2,3,5,50,1
2,9,8,70,1
3,1,5,50,1
3,2,5,50,1
3,4,4,40,1
3,9,5,50,1
3,10,1,10,1
4,3,4,40,1
4,5,5,50,1
4,6,6,60,1
4,9,4,40,1
5,4,5,50,1
5,6,4,40,1
5,9,5,50,1
6,4,6,60,1
6,5,4,40,1
6,7,4,40,1
6,8,6,60,1
6,9,4,40,1
7,1,12,100,1
7,6,4,40,1
7,8,4,40,1
7,9,5,50,1
8,1,8,70,1
8,6,6,60,1
8,7,4,40,1
9,1,5,50,1
9,2,8,70,1
9,3,5,50,1
9,4,4,40,1
9,5,5,50,1
9,6,4,40,1
9,7,5,50,1
10,3,1,10,1
0,1,1,10,2
0,11,0,0,2
1,2,4,40,2
1,3,5,50,2
1,7,12,100,2
1,8,8,70,2
1,9,5,50,2
1,11,1,10,2
2,1,4,40,2
2,3,5,50,2
2,9,8,70,2
3,1,5,50,2
3,2,5,50,2
3,4,4,40,2
3,9,5,50,2
3,10,1,10,2
4,3,4,40,2
4,5,5,50,2
4,6,7,60,2
4,9,4,40,2
5,4,5,50,2
5,6,4,40,2
5,9,5,50,2
6,4,7,60,2
6,5,4,40,2
6,7,4,40,2
6,8,7,60,2
6,9,4,40,2
7,1,12,100,2
7,6,4,40,2
7,8,4,40,2
7,9,5,50,2
8,1,8,70,2
8,6,7,60,2
8,7,4,40,2
9,1,5,50,2
9,2,8,70,2
9,3,5,50,2
9,4,4,40,2
9,5,5,50,2
9,6,4,40,2
9,7,5,50,2
10,3,1,10,2
0,1,1,10,3
0,11,0,0,3
1,2,4,40,3
1,3,5,50,3
1,7,13,100,3
1,8,8,70,3
1,9,5,50,3
1,11,1,10,3
2,1,4,40,3
2,3,5,50,3
2,9,8,70,3
3,1,5,50,3
3,2,5,50,3
3,4,4,40,3
3,9,5,50,3
3,10,1,10,3
4,3,4,40,3
4,5,5,50,3
4,6,7,60,3
4,9,4,40,3
5,4,5,50,3
5,6,4,40,3
5,9,5,50,3
6,4,7,60,3
6,5,4,40,3
6,7,4,40,3
6,8,7,60,3
6,9,4,40,3
7,1,13,100,3
7,6,4,40,3
7,8,4,40,3
7,9,5,50,3
8,1,8,70,3
8,6,7,60,3
8,7,4,40,3
9,1,5,50,3
9,2,8,70,3
9,3,5,50,3
9,4,4,40,3
9,5,5,50,3
9,6,4,40,3
9,7,5,50,3
10,3,1,10,3
0,1,1,10,4
0,11,0,0,4
1,2,4,40,4
1,3,6,50,4
1,7,13,100,4
1,8,8,70,4
1,9,6,50,4
1,11,1,10,4
2,1,4,40,4
2,3,6,50,4
2,9,8,70,4
3,1,6,50,4
3,2,6,50,4
3,4,4,40,4
3,9,6,50,4
3,10,1,10,4
4,3,4,40,4
4,5,6,50,4
4,6,7,60,4
4,9,4,40,4
5,4,6,50,4
5,6,4,40,4
5,9,6,50,4
6,4,7,60,4
6,5,4,40,4
6,7,4,40,4
6,8,7,60,4
6,9,4,40,4
7,1,13,100,4
7,6,4,40,4
7,8,4,40,4
7,9,6,50,4
8,1,8,70,4
8,6,7,60,4
8,7,4,40,4
9,1,6,50,4
9,2,8,70,4
9,3,6,50,4
9,4,4,40,4
9,5,6,50,4
9,6,4,40,4
9,7,6,50,4
10,3,1,10,4
0,1,1,10,5
0,11,0,0,5
1,2,5,40,5
1,3,6,50,5
1,7,14,100,5
1,8,9,70,5
1,9,6,50,5
1,11,1,10,5
2,1,5,40,5
2,3,6,50,5
2,9,9,70,5
3,1,6,50,5
3,2,6,50,5
3,4,5,40,5
3,9,6,50,5
3,10,1,10,5
4,3,5,40,5
4,5,6,50,5
4,6,7,60,5
4,9,5,40,5
5,4,6,50,5
5,6,5,40,5
5,9,6,50,5
6,4,7,60,5
6,5,5,40,5
6,7,5,40,5
6,8,7,60,5
6,9,5,40,5
7,1,14,100,5
7,6,5,40,5
7,8,5,40,5
7,9,6,50,5
8,1,9,70,5
8,6,7,60,5
8,7,5,40,5
9,1,6,50,5
9,2,9,70,5
9,3,6,50,5
9,4,5,40,5
9,5,6,50,5
9,6,5,40,5
9,7,6,50,5
10,3,1,10,5
0,1,1,10,6
0,11,0,0,6
1,2,5,40,6
1,3,6,50,6
1,7,15,100,6
1,8,9,70,6
1,9,6,50,6
1,11,1,10,6
2,1,5,40,6
2,3,6,50,6
2,9,9,70,6
3,1,6,50,6
3,2,6,50,6
3,4,5,40,6
3,9,6,50,6
3,10,1,10,6
4,3,5,40,6
4,5,6,50,6
4,6,8,60,6
4,9,5,40,6
5,4,6,50,6
5,6,5,40,6
5,9,6,50,6
6,4,8,60,6
6,5,5,40,6
6,7,5,40,6
6,8,8,60,6
6,9,5,40,6
7,1,15,100,6
7,6,5,40,6
7,8,5,40,6
7,9,6,50,6
8,1,9,70,6
8,6,8,60,6
8,7,5,40,6
9,1,6,50,6
9,2,9,70,6
9,3,6,50,6
9,4,5,40,6
9,5,6,50,6
9,6,5,40,6
9,7,6,50,6
10,3,1,10,6
0,1,1,10,7
0,11,0,0,7
1,2,5,40,7
1,3,7,50,7
1,7,16,100,7
1,8,10,70,7
1,9,7,50,7
1,11,1,10,7
2,1,5,40,7
2,3,7,50,7
2,9,10,70,7
3,1,7,50,7
3,2,7,50,7
3,4,5,40,7
3,9,7,50,7
3,10,1,10,7
4,3,5,40,7
4,5,7,50,7
4,6,8,60,7
4,9,5,40,7
5,4,7,50,7
5,6,5,40,7
5,9,7,50,7
6,4,8,60,7
6,5,5,40,7
6,7,5,40,7
6,8,8,60,7
6,9,5,40,7
7,1,16,100,7
7,6,5,40,7
7,8,5,40,7
7,9,7,50,7
8,1,10,70,7
8,6,8,60,7
8,7,5,40,7
9,1,7,50,7
9,2,10,70,7
9,3,7,50,7
9,4,5,40,7
9,5,7,50,7
9,6,5,40,7
9,7,7,50,7
10,3,1,10,7
0,1,1,10,8
0,11,0,0,8
1,2,5,40,8
1,3,7,50,8
1,7,16,100,8
1,8,10,70,8
1,9,7,50,8
1,11,1,10,8
2,1,5,40,8
2,3,7,50,8
2,9,10,70,8
3,1,7,50,8
3,2,7,50,8
3,4,5,40,8
3,9,7,50,8
3,10,1,10,8
4,3,5,40,8
4,5,7,50,8
4,6,9,60,8
4,9,5,40,8
5,4,7,50,8
5,6,5,40,8
5,9,7,50,8
6,4,9,60,8
6,5,5,40,8
6,7,5,40,8
6,8,9,60,8
6,9,5,40,8
7,1,16,100,8
7,6,5,40,8
7,8,5,40,8
7,9,7,50,8
8,1,10,70,8
8,6,9,60,8
8,7,5,40,8
9,1,7,50,8
9,2,10,70,8
9,3,7,50,8
9,4,5,40,8
9,5,7,50,8
9,6,5,40,8
9,7,7,50,8
10,3,1,10,8
0,1,1,10,9
0,11,0,0,9
1,2,6,40,9
1,3,7,50,9
1,7,17,100,9
1,8,11,70,9
1,9,7,50,9
1,11,1,10,9
2,1,6,40,9
2,3,7,50,9
2,9,11,70,9
3,1,7,50,9
3,2,7,50,9
3,4,6,40,9
3,9,7,50,9
3,10,1,10,9
4,3,6,40,9
4,5,7,50,9
4,6,9,60,9
4,9,6,40,9
5,4,7,50,9
5,6,6,40,9
5,9,7,50,9
6,4,9,60,9
6,5,6,40,9
6,7,6,40,9
6,8,9,60,9
6,9,6,40,9
7,1,17,100,9
7,6,6,40,9
7,8,6,40,9
7,9,7,50,9
8,1,11,70,9
8,6,9,60,9
8,7,6,40,9
9,1,7,50,9
9,2,11,70,9
9,3,7,50,9
9,4,6,40,9
9,5,7,50,9
9,6,6,40,9
9,7,7,50,9
10,3,1,10,9
0,1,1,10,10
0,11,0,0,10
1,2,6,40,10
1,3,8,50,10
1,7,17,100,10
1,8,11,70,10
1,9,8,50,10
1,11,1,10,10
2,1,6,40,10
2,3,8,50,10
2,9,11,70,10
3,1,8,50,10
3,2,8,50,10
3,4,6,40,10
3,9,8,50,10
3,10,1,10,10
4,3,6,40,10
4,5,8,50,10
4,6,9,60,10
4,9,6,40,10
5,4,8,50,10
5,6,6,40,10
5,9,8,50,10
6,4,9,60,10
6,5,6,40,10
6,7,6,40,10
6,8,9,60,10
6,9,6,40,10
7,1,17,100,10
7,6,6,40,10
7,8,6,40,10
7,9,8,50,10
8,1,11,70,10
8,6,9,60,10
8,7,6,40,10
9,1,8,50,10
9,2,11,70,10
9,3,8,50,10
9,4,6,40,10
9,5,8,50,10
9,6,6,40,10
9,7,8,50,10
10,3,1,10,10
0,1,1,10,11
0,11,0,0,11
1,2,6,40,11
1,3,8,50,11
1,7,18,100,11
1,8,12,70,11
1,9,8,50,11
1,11,1,10,11
2,1,6,40,11
2,3,8,50,11
2,9,12,70,11
3,1,8,50,11
3,2,8,50,11
3,4,6,40,11
3,9,8,50,11
3,10,1,10,11
4,3,6,40,11
4,5,8,50,11
4,6,10,60,11
4,9,6,40,11
5,4,8,50,11
5,6,6,40,11
5,9,8,50,11
6,4,10,60,11
6,5,6,40,11
6,7,6,40,11
6,8,10,60,11
6,9,6,40,11
7,1,18,100,11
7,6,6,40,11
7,8,6,40,11
7,9,8,50,11
8,1,12,70,11
8,6,10,60,11
8,7,6,40,11
9,1,8,50,11
9,2,12,70,11
9,3,8,50,11
9,4,6,40,11
9,5,8,50,11
9,6,6,40,11
9,7,8,50,11
10,3,1,10,11
0,1,1,10,12
0,11,0,0,12
1,2,7,40,12
1,3,8,50,12
1,7,18,100,12
1,8,12,70,12
1,9,8,50,12
1,11,1,10,12
2,1,7,40,12
2,3,8,50,12
2,9,12,70,12
3,1,8,50,12
3,2,8,50,12
3,4,7,40,12
3,9,8,50,12
3,10,1,10,12
4,3,7,40,12
4,5,8,50,12
4,6,10,60,12
4,9,7,40,12
5,4,8,50,12
5,6,7,40,12
5,9,8,50,12
6,4,10,60,12
6,5,7,40,12
6,7,7,40,12
6,8,10,60,12
6,9,7,40,12
7,1,18,100,12
7,6,7,40,12
7,8,7,40,12
7,9,8,50,12
8,1,12,70,12
8,6,10,60,12
8,7,7,40,12
9,1,8,50,12
9,2,12,70,12
9,3,8,50,12
9,4,7,40,12
9,5,8,50,12
9,6,7,40,12
9,7,8,50,12
10,3,1,10,12
0,1,1,10,13
0,11,0,0,13
1,2,7,40,13
1,3,9,50,13
1,7,19,100,13
1,8,13,70,13
1,9,9,50,13
1,11,1,10,13
2,1,7,40,13
2,3,9,50,13
2,9,13,70,13
3,1,9,50,13
3,2,9,50,13
3,4,7,40,13
3,9,9,50,13
3,10,1,10,13
4,3,7,40,13
4,5,9,50,13
4,6,11,60,13
4,9,7,40,13
5,4,9,50,13
5,6,7,40,13
5,9,9,50,13
6,4,11,60,13
6,5,7,40,13
6,7,7,40,13
6,8,11,60,13
6,9,7,40,13
7,1,19,100,13
7,6,7,40,13
7,8,7,40,13
7,9,9,50,13
8,1,13,70,13
8,6,11,60,13
8,7,7,40,13
9,1,9,50,13
9,2,13,70,13
9,3,9,50,13
9,4,7,40,13
9,5,9,50,13
9,6,7,40,13
9,7,9,50,13
10,3,1,10,13
0,1,1,10,14
0,11,0,0,14
1,2,7,40,14
1,3,9,50,14
1,7,19,100,14
1,8,13,70,14
1,9,9,50,14
1,11,1,10,14
2,1,7,40,14
2,3,9,50,14
2,9,13,70,14
3,1,9,50,14
3,2,9,50,14
3,4,7,40,14
3,9,9,50,14
3,10,1,10,14
4,3,7,40,14
4,5,9,50,14
4,6,11,60,14
4,9,7,40,14
5,4,9,50,14
5,6,7,40,14
5,9,9,50,14
6,4,11,60,14
6,5,7,40,14
6,7,7,40,14
6,8,11,60,14
6,9,7,40,14
7,1,19,100,14
7,6,7,40,14
7,8,7,40,14
7,9,9,50,14
8,1,13,70,14
8,6,11,60,14
8,7,7,40,14
9,1,9,50,14
9,2,13,70,14
9,3,9,50,14
9,4,7,40,14
9,5,9,50,14
9,6,7,40,14
9,7,9,50,14
10,3,1,10,14
0,1,1,10,15
0,11,0,0,15
1,2,7,40,15
1,3,9,50,15
1,7,19,100,15
1,8,13,70,15
1,9,9,50,15
1,11,1,10,15
2,1,7,40,15
2,3,9,50,15
2,9,13,70,15
3,1,9,50,15
3,2,9,50,15
3,4,7,40,15
3,9,9,50,15
3,10,1,10,15
4,3,7,40,15
4,5,9,50,15
4,6,11,60,15
4,9,7,40,15
5,4,9,50,15
5,6,7,40,15
5,9,9,50,15
6,4,11,60,15
6,5,7,40,15
6,7,7,40,15
6,8,11,60,15
6,9,7,40,15
7,1,19,100,15
7,6,7,40,15
7,8,7,40,15
7,9,9,50,15
8,1,13,70,15
8,6,11,60,15
8,7,7,40,15
9,1,9,50,15
9,2,13,70,15
9,3,9,50,15
9,4,7,40,15
9,5,9,50,15
9,6,7,40,15
9,7,9,50,15
10,3,1,10,15
0,1,1,10,16
0,11,0,0,16
1,2,7,40,16
1,3,9,50,16
1,7,19,100,16
1,8,13,70,16
1,9,9,50,16
1,11,1,10,16
2,1,7,40,16
2,3,9,50,16
2,9,13,70,16
3,1,9,50,16
3,2,9,50,16
3,4,7,40,16
3,9,9,50,16
3,10,1,10,16
4,3,7,40,16
4,5,9,50,16
4,6,11,60,16
4,9,7,40,16
5,4,9,50,16
5,6,7,40,16
5,9,9,50,16
6,4,11,60,16
6,5,7,40,16
6,7,7,40,16
6,8,11,60,16
6,9,7,40,16
7,1,19,100,16
7,6,7,40,16
7,8,7,40,16
7,9,9,50,16
8,1,13,70,16
8,6,11,60,16
8,7,7,40,16
9,1,9,50,16
9,2,13,70,16
9,3,9,50,16
9,4,7,40,16
9,5,9,50,16
9,6,7,40,16
9,7,9,50,16
10,3,1,10,16
0,1,1,10,17
0,11,0,0,17
1,2,8,40,17
1,3,10,50,17
1,7,20,100,17
1,8,14,70,17
1,9,10,50,17
1,11,1,10,17
2,1,8,40,17
2,3,10,50,17
2,9,14,70,17
3,1,10,50,17
3,2,10,50,17
3,4,8,40,17
3,9,10,50,17
3,10,1,10,17
4,3,8,40,17
4,5,10,50,17
4,6,12,60,17
4,9,8,40,17
5,4,10,50,17
5,6,8,40,17
5,9,10,50,17
6,4,12,60,17
6,5,8,40,17
6,7,8,40,17
6,8,12,60,17
6,9,8,40,17
7,1,20,100,17
7,6,8,40,17
7,8,8,40,17
7,9,10,50,17
8,1,14,70,17
8,6,12,60,17
8,7,8,40,17
9,1,10,50,17
9,2,14,70,17
9,3,10,50,17
9,4,8,40,17
9,5,10,50,17
9,6,8,40,17
9,7,10,50,17
10,3,1,10,17
0,1,1,10,18
0,11,0,0,18
1,2,8,40,18
1,3,10,50,18
1,7,20,100,18
1,8,14,70,18
1,9,10,50,18
1,11,1,10,18
2,1,8,40,18
2,3,10,50,18
2,9,14,70,18
3,1,10,50,18
3,2,10,50,18
3,4,8,40,18
3,9,10,50,18
3,10,1,10,18
4,3,8,40,18
4,5,10,50,18
4,6,12,60,18
4,9,8,40,18
5,4,10,50,18
5,6,8,40,18
5,9,10,50,18
6,4,12,60,18
6,5,8,40,18
6,7,8,40,18
6,8,12,60,18
6,9,8,40,18
7,1,20,100,18
7,6,8,40,18
7,8,8,40,18
7,9,10,50,18
8,1,14,70,18
8,6,12,60,18
8,7,8,40,18
9,1,10,50,18
9,2,14,70,18
9,3,10,50,18
9,4,8,40,18
9,5,10,50,18
9,6,8,40,18
9,7,10,50,18
10,3,1,10,18
0,1,1,10,19
0,11,0,0,19
1,2,8,40,19
1,3,10,50,19
1,7,19,100,19
1,8,14,70,19
1,9,10,50,19
1,11,1,10,19
2,1,8,40,19
2,3,10,50,19
2,9,14,70,19
3,1,10,50,19
3,2,10,50,19
3,4,8,40,19
3,9,10,50,19
3,10,1,10,19
4,3,8,40,19
4,5,10,50,19
4,6,12,60,19
4,9,8,40,19
5,4,10,50,19
5,6,8,40,19
5,9,10,50,19
6,4,12,60,19
6,5,8,40,19
6,7,8,40,19
6,8,12,60,19
6,9,8,40,19
7,1,19,100,19
7,6,8,40,19
7,8,8,40,19
7,9,10,50,19
8,1,14,70,19
8,6,12,60,19
8,7,8,40,19
9,1,10,50,19
9,2,14,70,19
9,3,10,50,19
9,4,8,40,19
9,5,10,50,19
9,6,8,40,19
9,7,10,50,19
10,3,1,10,19
0,1,1,10,20
0,11,0,0,20
1,2,8,40,20
1,3,10,50,20
1,7,20,100,20
1,8,14,70,20
1,9,10,50,20
1,11,1,10,20
2,1,8,40,20
2,3,10,50,20
2,9,14,70,20
3,1,10,50,20
3,2,10,50,20
3,4,8,40,20
3,9,10,50,20
3,10,1,10,20
4,3,8,40,20
4,5,10,50,20
4,6,12,60,20
4,9,8,40,20
5,4,10,50,20
5,6,8,40,20
5,9,10,50,20
6,4,12,60,20
6,5,8,40,20
6,7,8,40,20
6,8,12,60,20
6,9,8,40,20
7,1,20,100,20
7,6,8,40,20
7,8,8,40,20
7,9,10,50,20
8,1,14,70,20
8,6,12,60,20
8,7,8,40,20
9,1,10,50,20
9,2,14,70,20
9,3,10,50,20
9,4,8,40,20
9,5,10,50,20
9,6,8,40,20
9,7,10,50,20
10,3,1,10,20
0,1,1,10,21
0,11,0,0,21
1,2,8,40,21
1,3,10,50,21
1,7,19,100,21
1,8,14,70,21
1,9,10,50,21
1,11,1,10,21
2,1,8,40,21
2,3,10,50,21
2,9,14,70,21
3,1,10,50,21
3,2,10,50,21
3,4,8,40,21
3,9,10,50,21
3,10,1,10,21
4,3,8,40,21
4,5,10,50,21
4,6,12,60,21
4,9,8,40,21
5,4,10,50,21
5,6,8,40,21
5,9,10,50,21
6,4,12,60,21
6,5,8,40,21
6,7,8,40,21
6,8,12,60,21
6,9,8,40,21
7,1,19,100,21
7,6,8,40,21
7,8,8,40,21
7,9,10,50,21
8,1,14,70,21
8,6,12,60,21
8,7,8,40,21
9,1,10,50,21
9,2,14,70,21
9,3,10,50,21
9,4,8,40,21
9,5,10,50,21
9,6,8,40,21
9,7,10,50,21
10,3,1,10,21
0,1,1,10,22
0,11,0,0,22
1,2,8,40,22
1,3,10,50,22
1,7,19,100,22
1,8,14,70,22
1,9,10,50,22
1,11,1,10,22
2,1,8,40,22
2,3,10,50,22
2,9,14,70,22
3,1,10,50,22
3,2,10,50,22
3,4,8,40,22
3,9,10,50,22
3,10,1,10,22
4,3,8,40,22
4,5,10,50,22
4,6,12,60,22
4,9,8,40,22
5,4,10,50,22
5,6,8,40,22
5,9,10,50,22
6,4,12,60,22
6,5,8,40,22
6,7,8,40,22
6,8,12,60,22
6,9,8,40,22
7,1,19,100,22
7,6,8,40,22
7,8,8,40,22
7,9,10,50,22
8,1,14,70,22
8,6,12,60,22
8,7,8,40,22
9,1,10,50,22
9,2,14,70,22
9,3,10,50,22
9,4,8,40,22
9,5,10,50,22
9,6,8,40,22
9,7,10,50,22
10,3,1,10,22
0,1,1,10,23
0,11,0,0,23
1,2,8,40,23
1,3,10,50,23
1,7,19,100,23
1,8,14,70,23
1,9,10,50,23
1,11,1,10,23
2,1,8,40,23
2,3,10,50,23
2,9,14,70,23
3,1,10,50,23
3,2,10,50,23
3,4,8,40,23
3,9,10,50,23
3,10,1,10,23
4,3,8,40,23
4,5,10,50,23
4,6,12,60,23
4,9,8,40,23
5,4,10,50,23
5,6,8,40,23
5,9,10,50,23
6,4,12,60,23
6,5,8,40,23
6,7,8,40,23
6,8,12,60,23
6,9,8,40,23
7,1,19,100,23
7,6,8,40,23
7,8,8,40,23
7,9,10,50,23
8,1,14,70,23
8,6,12,60,23
8,7,8,40,23
9,1,10,50,23
9,2,14,70,23
9,3,10,50,23
9,4,8,40,23
9,5,10,50,23
9,6,8,40,23
9,7,10,50,23
10,3,1,10,23
0,1,1,10,24
0,11,0,0,24
1,2,8,40,24
1,3,10,50,24
1,7,19,100,24
1,8,14,70,24
1,9,10,50,24
1,11,1,10,24
2,1,8,40,24
2,3,10,50,24
2,9,14,70,24
3,1,10,50,24
3,2,10,50,24
3,4,8,40,24
3,9,10,50,24
3,10,1,10,24
4,3,8,40,24
4,5,10,50,24
4,6,12,60,24
4,9,8,40,24
5,4,10,50,24
5,6,8,40,24
5,9,10,50,24
6,4,12,60,24
6,5,8,40,24
6,7,8,40,24
6,8,12,60,24
6,9,8,40,24
7,1,19,100,24
7,6,8,40,24
7,8,8,40,24
7,9,10,50,24
8,1,14,70,24
8,6,12,60,24
8,7,8,40,24
9,1,10,50,24
9,2,14,70,24
9,3,10,50,24
9,4,8,40,24
9,5,10,50,24
9,6,8,40,24
9,7,10,50,24
10,3,1,10,24
0,1,1,10,25
0,11,0,0,25
1,2,8,40,25
1,3,10,50,25
1,7,19,100,25
1,8,14,70,25
1,9,10,50,25
1,11,1,10,25
2,1,8,40,25
2,3,10,50,25
2,9,14,70,25
3,1,10,50,25
3,2,10,50,25
3,4,8,40,25
3,9,10,50,25
3,10,1,10,25
4,3,8,40,25
4,5,10,50,25
4,6,12,60,25
4,9,8,40,25
5,4,10,50,25
5,6,8,40,25
5,9,10,50,25
6,4,12,60,25
6,5,8,40,25
6,7,8,40,25
6,8,12,60,25
6,9,8,40,25
7,1,19,100,25
7,6,8,40,25
7,8,8,40,25
7,9,10,50,25
8,1,14,70,25
8,6,12,60,25
8,7,8,40,25
9,1,10,50,25
9,2,14,70,25
9,3,10,50,25
9,4,8,40,25
9,5,10,50,25
9,6,8,40,25
9,7,10,50,25
10,3,1,10,25
0,1,1,10,26
0,11,0,0,26
1,2,8,40,26
1,3,10,50,26
1,7,19,100,26
1,8,14,70,26
1,9,10,50,26
1,11,1,10,26
2,1,8,40,26
2,3,10,50,26
2,9,14,70,26
3,1,10,50,26
3,2,10,50,26
3,4,8,40,26
3,9,10,50,26
3,10,1,10,26
4,3,8,40,26
4,5,10,50,26
4,6,12,60,26
4,9,8,40,26
5,4,10,50,26
5,6,8,40,26
5,9,10,50,26
6,4,12,60,26
6,5,8,40,26
6,7,8,40,26
6,8,12,60,26
6,9,8,40,26
7,1,19,100,26
7,6,8,40,26
7,8,8,40,26
7,9,10,50,26
8,1,14,70,26
8,6,12,60,26
8,7,8,40,26
9,1,10,50,26
9,2,14,70,26
9,3,10,50,26
9,4,8,40,26
9,5,10,50,26
9,6,8,40,26
9,7,10,50,26
10,3,1,10,26
0,1,1,10,27
0,11,0,0,27
1,2,8,40,27
1,3,10,50,27
1,7,18,100,27
1,8,13,70,27
1,9,10,50,27
1,11,1,10,27
2,1,8,40,27
2,3,10,50,27
2,9,13,70,27
3,1,10,50,27
3,2,10,50,27
3,4,8,40,27
3,9,10,50,27
3,10,1,10,27
4,3,8,40,27
4,5,10,50,27
4,6,12,60,27
4,9,8,40,27
5,4,10,50,27
5,6,8,40,27
5,9,10,50,27
6,4,12,60,27
6,5,8,40,27
6,7,8,40,27
6,8,12,60,27
6,9,8,40,27
7,1,18,100,27
7,6,8,40,27
7,8,8,40,27
7,9,10,50,27
8,1,13,70,27
8,6,12,60,27
8,7,8,40,27
9,1,10,50,27
9,2,13,70,27
9,3,10,50,27
9,4,8,40,27
9,5,10,50,27
9,6,8,40,27
9,7,10,50,27
10,3,1,10,27
0,1,1,10,28
0,11,0,0,28
1,2,8,40,28
1,3,10,50,28
1,7,18,100,28
1,8,13,70,28
1,9,10,50,28
1,11,1,10,28
2,1,8,40,28
2,3,10,50,28
2,9,13,70,28
3,1,10,50,28
3,2,10,50,28
3,4,8,40,28
3,9,10,50,28
3,10,1,10,28
4,3,8,40,28
4,5,10,50,28
4,6,12,60,28
4,9,8,40,28
5,4,10,50,28
5,6,8,40,28
5,9,10,50,28
6,4,12,60,28
6,5,8,40,28
6,7,8,40,28
6,8,12,60,28
6,9,8,40,28
7,1,18,100,28
7,6,8,40,28
7,8,8,40,28
7,9,10,50,28
8,1,13,70,28
8,6,12,60,28
8,7,8,40,28
9,1,10,50,28
9,2,13,70,28
9,3,10,50,28
9,4,8,40,28
9,5,10,50,28
9,6,8,40,28
9,7,10,50,28
10,3,1,10,28
0,1,1,10,29
0,11,0,0,29
1,2,8,40,29
1,3,10,50,29
1,7,18,100,29
1,8,13,70,29
1,9,10,50,29
1,11,1,10,29
2,1,8,40,29
2,3,10,50,29
2,9,13,70,29
3,1,10,50,29
3,2,10,50,29
3,4,8,40,29
3,9,10,50,29
3,10,1,10,29
4,3,8,40,29
4,5,10,50,29
4,6,11,60,29
4,9,8,40,29
5,4,10,50,29
5,6,8,40,29
5,9,10,50,29
6,4,11,60,29
6,5,8,40,29
6,7,8,40,29
6,8,11,60,29
6,9,8,40,29
7,1,18,100,29
7,6,8,40,29
7,8,8,40,29
7,9,10,50,29
8,1,13,70,29
8,6,11,60,29
8,7,8,40,29
9,1,10,50,29
9,2,13,70,29
9,3,10,50,29
9,4,8,40,29
9,5,10,50,29
9,6,8,40,29
9,7,10,50,29
10,3,1,10,29
0,1,1,10,30
0,11,0,0,30
1,2,8,40,30
1,3,10,50,30
1,7,18,100,30
1,8,13,70,30
1,9,10,50,30
1,11,1,10,30
2,1,8,40,30
2,3,10,50,30
2,9,13,70,30
3,1,10,50,30
3,2,10,50,30
3,4,8,40,30
3,9,10,50,30
3,10,1,10,30
4,3,8,40,30
4,5,10,50,30
4,6,11,60,30
4,9,8,40,30
5,4,10,50,30
5,6,8,40,30
5,9,10,50,30
6,4,11,60,30
6,5,8,40,30
6,7,8,40,30
6,8,11,60,30
6,9,8,40,30
7,1,18,100,30
7,6,8,40,30
7,8,8,40,30
7,9,10,50,30
8,1,13,70,30
8,6,11,60,30
8,7,8,40,30
9,1,10,50,30
9,2,13,70,30
9,3,10,50,30
9,4,8,40,30
9,5,10,50,30
9,6,8,40,30
9,7,10,50,30
10,3,1,10,30
0,1,1,10,31
0,11,0,0,31
1,2,8,40,31
1,3,10,50,31
1,7,18,100,31
1,8,13,70,31
1,9,10,50,31
1,11,1,10,31
2,1,8,40,31
2,3,10,50,31
2,9,13,70,31
3,1,10,50,31
3,2,10,50,31
3,4,8,40,31
3,9,10,50,31
3,10,1,10,31
4,3,8,40,31
4,5,10,50,31
4,6,11,60,31
4,9,8,40,31
5,4,10,50,31
5,6,8,40,31
5,9,10,50,31
6,4,11,60,31
6,5,8,40,31
6,7,8,40,31
6,8,11,60,31
6,9,8,40,31
7,1,18,100,31
7,6,8,40,31
7,8,8,40,31
7,9,10,50,31
8,1,13,70,31
8,6,11,60,31
8,7,8,40,31
9,1,10,50,31
9,2,13,70,31
9,3,10,50,31
9,4,8,40,31
9,5,10,50,31
9,6,8,40,31
9,7,10,50,31
10,3,1,10,31
0,1,1,10,32
0,11,0,0,32
1,2,8,40,32
1,3,9,50,32
1,7,18,100,32
1,8,13,70,32
1,9,9,50,32
1,11,1,10,32
2,1,8,40,32
2,3,9,50,32
2,9,13,70,32
3,1,9,50,32
3,2,9,50,32
3,4,8,40,32
3,9,9,50,32
3,10,1,10,32
4,3,8,40,32
4,5,9,50,32
4,6,11,60,32
4,9,8,40,32
5,4,9,50,32
5,6,8,40,32
5,9,9,50,32
6,4,11,60,32
6,5,8,40,32
6,7,8,40,32
6,8,11,60,32
6,9,8,40,32
7,1,18,100,32
7,6,8,40,32
7,8,8,40,32
7,9,9,50,32
8,1,13,70,32
8,6,11,60,32
8,7,8,40,32
9,1,9,50,32
9,2,13,70,32
9,3,9,50,32
9,4,8,40,32
9,5,9,50,32
9,6,8,40,32
9,7,9,50,32
10,3,1,10,32
0,1,1,10,33
0,11,0,0,33
1,2,7,40,33
1,3,9,50,33
1,7,17,100,33
1,8,13,70,33
1,9,9,50,33
1,11,1,10,33
2,1,7,40,33
2,3,9,50,33
2,9,13,70,33
3,1,9,50,33
3,2,9,50,33
3,4,7,40,33
3,9,9,50,33
3,10,1,10,33
4,3,7,40,33
4,5,9,50,33
4,6,11,60,33
4,9,7,40,33
5,4,9,50,33
5,6,7,40,33
5,9,9,50,33
6,4,11,60,33
6,5,7,40,33
6,7,7,40,33
6,8,11,60,33
6,9,7,40,33
7,1,17,100,33
7,6,7,40,33
7,8,7,40,33
7,9,9,50,33
8,1,13,70,33
8,6,11,60,33
8,7,7,40,33
9,1,9,50,33
9,2,13,70,33
9,3,9,50,33
9,4,7,40,33
9,5,9,50,33
9,6,7,40,33
9,7,9,50,33
10,3,1,10,33
0,1,1,10,34
0,11,0,0,34
1,2,7,40,34
1,3,9,50,34
1,7,17,100,34
1,8,12,70,34
1,9,9,50,34
1,11,1,10,34
2,1,7,40,34
2,3,9,50,34
2,9,12,70,34
3,1,9,50,34
3,2,9,50,34
3,4,7,40,34
3,9,9,50,34
3,10,1,10,34
4,3,7,40,34
4,5,9,50,34
4,6,11,60,34
4,9,7,40,34
5,4,9,50,34
5,6,7,40,34
5,9,9,50,34
6,4,11,60,34
6,5,7,40,34
6,7,7,40,34
6,8,11,60,34
6,9,7,40,34
7,1,17,100,34
7,6,7,40,34
7,8,7,40,34
7,9,9,50,34
8,1,12,70,34
8,6,11,60,34
8,7,7,40,34
9,1,9,50,34
9,2,12,70,34
9,3,9,50,34
9,4,7,40,34
9,5,9,50,34
9,6,7,40,34
9,7,9,50,34
10,3,1,10,34
0,1,1,10,35
0,11,0,0,35
1,2,7,40,35
1,3,9,50,35
1,7,17,100,35
1,8,12,70,35
1,9,9,50,35
1,11,1,10,35
2,1,7,40,35
2,3,9,50,35
2,9,12,70,35
3,1,9,50,35
3,2,9,50,35
3,4,7,40,35
3,9,9,50,35
3,10,1,10,35
4,3,7,40,35
4,5,9,50,35
4,6,11,60,35
4,9,7,40,35
5,4,9,50,35
5,6,7,40,35
5,9,9,50,35
6,4,11,60,35
6,5,7,40,35
6,7,7,40,35
6,8,11,60,35
6,9,7,40,35
7,1,17,100,35
7,6,7,40,35
7,8,7,40,35
7,9,9,50,35
8,1,12,70,35
8,6,11,60,35
8,7,7,40,35
9,1,9,50,35
9,2,12,70,35
9,3,9,50,35
9,4,7,40,35
9,5,9,50,35
9,6,7,40,35
9,7,9,50,35
10,3,1,10,35
0,1,1,10,36
0,11,0,0,36
1,2,7,40,36
1,3,9,50,36
1,7,17,100,36
1,8,12,70,36
1,9,9,50,36
1,11,1,10,36
2,1,7,40,36
2,3,9,50,36
2,9,12,70,36
3,1,9,50,36
3,2,9,50,36
3,4,7,40,36
3,9,9,50,36
3,10,1,10,36
4,3,7,40,36
4,5,9,50,36
4,6,10,60,36
4,9,7,40,36
5,4,9,50,36
5,6,7,40,36
5,9,9,50,36
6,4,10,60,36
6,5,7,40,36
6,7,7,40,36
6,8,10,60,36
6,9,7,40,36
7,1,17,100,36
7,6,7,40,36
7,8,7,40,36
7,9,9,50,36
8,1,12,70,36
8,6,10,60,36
8,7,7,40,36
9,1,9,50,36
9,2,12,70,36
9,3,9,50,36
9,4,7,40,36
9,5,9,50,36
9,6,7,40,36
9,7,9,50,36
10,3,1,10,36
0,1,1,10,37
0,11,0,0,37
1,2,7,40,37
1,3,9,50,37
1,7,17,100,37
1,8,12,70,37
1,9,9,50,37
1,11,1,10,37
2,1,7,40,37
2,3,9,50,37
2,9,12,70,37
3,1,9,50,37
3,2,9,50,37
3,4,7,40,37
3,9,9,50,37
3,10,1,10,37
4,3,7,40,37
4,5,9,50,37
4,6,10,60,37
4,9,7,40,37
5,4,9,50,37
5,6,7,40,37
5,9,9,50,37
6,4,10,60,37
6,5,7,40,37
6,7,7,40,37
6,8,10,60,37
6,9,7,40,37
7,1,17,100,37
7,6,7,40,37
7,8,7,40,37
7,9,9,50,37
8,1,12,70,37
8,6,10,60,37
8,7,7,40,37
9,1,9,50,37
9,2,12,70,37
9,3,9,50,37
9,4,7,40,37
9,5,9,50,37
9,6,7,40,37
9,7,9,50,37
10,3,1,10,37
0,1,1,10,38
0,11,0,0,38
1,2,7,40,38
1,3,8,50,38
1,7,16,100,38
1,8,12,70,38
1,9,8,50,38
1,11,1,10,38
2,1,7,40,38
2,3,8,50,38
2,9,12,70,38
3,1,8,50,38
3,2,8,50,38
3,4,7,40,38
3,9,8,50,38
3,10,1,10,38
4,3,7,40,38
4,5,8,50,38
4,6,10,60,38
4,9,7,40,38
5,4,8,50,38
5,6,7,40,38
5,9,8,50,38
6,4,10,60,38
6,5,7,40,38
6,7,7,40,38
6,8,10,60,38
6,9,7,40,38
7,1,16,100,38
7,6,7,40,38
7,8,7,40,38
7,9,8,50,38
8,1,12,70,38
8,6,10,60,38
8,7,7,40,38
9,1,8,50,38
9,2,12,70,38
9,3,8,50,38
9,4,7,40,38
9,5,8,50,38
9,6,7,40,38
9,7,8,50,38
10,3,1,10,38
0,1,1,10,39
0,11,0,0,39
1,2,7,40,39
1,3,9,50,39
1,7,16,100,39
1,8,12,70,39
1,9,9,50,39
1,11,1,10,39
2,1,7,40,39
2,3,9,50,39
2,9,12,70,39
3,1,9,50,39
3,2,9,50,39
3,4,7,40,39
3,9,9,50,39
3,10,1,10,39
4,3,7,40,39
4,5,9,50,39
4,6,10,60,39
4,9,7,40,39
5,4,9,50,39
5,6,7,40,39
5,9,9,50,39
6,4,10,60,39
6,5,7,40,39
6,7,7,40,39
6,8,10,60,39
6,9,7,40,39
7,1,16,100,39
7,6,7,40,39
7,8,7,40,39
7,9,9,50,39
8,1,12,70,39
8,6,10,60,39
8,7,7,40,39
9,1,9,50,39
9,2,12,70,39
9,3,9,50,39
9,4,7,40,39
9,5,9,50,39
9,6,7,40,39
9,7,9,50,39
10,3,1,10,39
0,1,1,10,40
0,11,0,0,40
1,2,7,40,40
1,3,8,50,40
1,7,16,100,40
1,8,11,70,40
1,9,8,50,40
1,11,1,10,40
2,1,7,40,40
2,3,8,50,40
2,9,11,70,40
3,1,8,50,40
3,2,8,50,40
3,4,7,40,40
3,9,8,50,40
3,10,1,10,40
4,3,7,40,40
4,5,8,50,40
4,6,10,60,40
4,9,7,40,40
5,4,8,50,40
5,6,7,40,40
5,9,8,50,40
6,4,10,60,40
6,5,7,40,40
6,7,7,40,40
6,8,10,60,40
6,9,7,40,40
7,1,16,100,40
7,6,7,40,40
7,8,7,40,40
7,9,8,50,40
8,1,11,70,40
8,6,10,60,40
8,7,7,40,40
9,1,8,50,40
9,2,11,70,40
9,3,8,50,40
9,4,7,40,40
9,5,8,50,40
9,6,7,40,40
9,7,8,50,40
10,3,1,10,40
0,1,1,10,41
0,11,0,0,41
1,2,7,40,41
1,3,8,50,41
1,7,16,100,41
1,8,11,70,41
1,9,8,50,41
1,11,1,10,41
2,1,7,40,41
2,3,8,50,41
2,9,11,70,41
3,1,8,50,41
3,2,8,50,41
3,4,7,40,41
3,9,8,50,41
3,10,1,10,41
4,3,7,40,41
4,5,8,50,41
4,6,10,60,41
4,9,7,40,41
5,4,8,50,41
5,6,7,40,41
5,9,8,50,41
6,4,10,60,41
6,5,7,40,41
6,7,7,40,41
6,8,10,60,41
6,9,7,40,41
7,1,16,100,41
7,6,7,40,41
7,8,7,40,41
7,9,8,50,41
8,1,11,70,41
8,6,10,60,41
8,7,7,40,41
9,1,8,50,41
9,2,11,70,41
9,3,8,50,41
9,4,7,40,41
9,5,8,50,41
9,6,7,40,41
9,7,8,50,41
10,3,1,10,41
0,1,1,10,42
0,11,0,0,42
1,2,7,40,42
1,3,8,50,42
1,7,16,100,42
1,8,11,70,42
1,9,8,50,42
1,11,1,10,42
2,1,7,40,42
2,3,8,50,42
2,9,11,70,42
3,1,8,50,42
3,2,8,50,42
3,4,7,40,42
3,9,8,50,42
3,10,1,10,42
4,3,7,40,42
4,5,8,50,42
4,6,10,60,42
4,9,7,40,42
5,4,8,50,42
5,6,7,40,42
5,9,8,50,42
6,4,10,60,42
6,5,7,40,42
6,7,7,40,42
6,8,10,60,42
6,9,7,40,42
7,1,16,100,42
7,6,7,40,42
7,8,7,40,42
7,9,8,50,42
8,1,11,70,42
8,6,10,60,42
8,7,7,40,42
9,1,8,50,42
9,2,11,70,42
9,3,8,50,42
9,4,7,40,42
9,5,8,50,42
9,6,7,40,42
9,7,8,50,42
10,3,1,10,42
0,1,1,10,43
0,11,0,0,43
1,2,7,40,43
1,3,8,50,43
1,7,16,100,43
1,8,11,70,43
1,9,8,50,43
1,11,1,10,43
2,1,7,40,43
2,3,8,50,43
2,9,11,70,43
3,1,8,50,43
3,2,8,50,43
3,4,7,40,43
3,9,8,50,43
3,10,1,10,43
4,3,7,40,43
4,5,8,50,43
4,6,10,60,43
4,9,7,40,43
5,4,8,50,43
5,6,7,40,43
5,9,8,50,43
6,4,10,60,43
6,5,7,40,43
6,7,7,40,43
6,8,10,60,43
6,9,7,40,43
7,1,16,100,43
7,6,7,40,43
7,8,7,40,43
7,9,8,50,43
8,1,11,70,43
8,6,10,60,43
8,7,7,40,43
9,1,8,50,43
9,2,11,70,43
9,3,8,50,43
9,4,7,40,43
9,5,8,50,43
9,6,7,40,43
9,7,8,50,43
10,3,1,10,43
0,1,1,10,44
0,11,0,0,44
1,2,7,40,44
1,3,8,50,44
1,7,16,100,44
1,8,11,70,44
1,9,8,50,44
1,11,1,10,44
2,1,7,40,44
2,3,8,50,44
2,9,11,70,44
3,1,8,50,44
3,2,8,50,44
3,4,7,40,44
3,9,8,50,44
3,10,1,10,44
4,3,7,40,44
4,5,8,50,44
4,6,10,60,44
4,9,7,40,44
5,4,8,50,44
5,6,7,40,44
5,9,8,50,44
6,4,10,60,44
6,5,7,40,44
6,7,7,40,44
6,8,10,60,44
6,9,7,40,44
7,1,16,100,44
7,6,7,40,44
7,8,7,40,44
7,9,8,50,44
8,1,11,70,44
8,6,10,60,44
8,7,7,40,44
9,1,8,50,44
9,2,11,70,44
9,3,8,50,44
9,4,7,40,44
9,5,8,50,44
9,6,7,40,44
9,7,8,50,44
10,3,1,10,44
0,1,1,10,45
0,11,0,0,45
1,2,7,40,45
1,3,8,50,45
1,7,15,100,45
1,8,11,70,45
1,9,8,50,45
1,11,1,10,45
2,1,7,40,45
2,3,8,50,45
2,9,11,70,45
3,1,8,50,45
3,2,8,50,45
3,4,7,40,45
3,9,8,50,45
3,10,1,10,45
4,3,7,40,45
4,5,8,50,45
4,6,9,60,45
4,9,7,40,45
5,4,8,50,45
5,6,7,40,45
5,9,8,50,45
6,4,9,60,45
6,5,7,40,45
6,7,7,40,45
6,8,9,60,45
6,9,7,40,45
7,1,15,100,45
7,6,7,40,45
7,8,7,40,45
7,9,8,50,45
8,1,11,70,45
8,6,9,60,45
8,7,7,40,45
9,1,8,50,45
9,2,11,70,45
9,3,8,50,45
9,4,7,40,45
9,5,8,50,45
9,6,7,40,45
9,7,8,50,45
10,3,1,10,45
0,1,1,10,46
0,11,0,0,46
1,2,6,40,46
1,3,8,50,46
1,7,15,100,46
1,8,11,70,46
1,9,8,50,46
1,11,1,10,46
2,1,6,40,46
2,3,8,50,46
2,9,11,70,46
3,1,8,50,46
3,2,8,50,46
3,4,6,40,46
3,9,8,50,46
3,10,1,10,46
4,3,6,40,46
4,5,8,50,46
4,6,9,60,46
4,9,6,40,46
5,4,8,50,46
5,6,6,40,46
5,9,8,50,46
6,4,9,60,46
6,5,6,40,46
6,7,6,40,46
6,8,9,60,46
6,9,6,40,46
7,1,15,100,46
7,6,6,40,46
7,8,6,40,46
7,9,8,50,46
8,1,11,70,46
8,6,9,60,46
8,7,6,40,46
9,1,8,50,46
9,2,11,70,46
9,3,8,50,46
9,4,6,40,46
9,5,8,50,46
9,6,6,40,46
9,7,8,50,46
10,3,1,10,46
0,1,1,10,47
0,11,0,0,47
1,2,6,40,47
1,3,8,50,47
1,7,15,100,47
1,8,11,70,47
1,9,8,50,47
1,11,1,10,47
2,1,6,40,47
2,3,8,50,47
2,9,11,70,47
3,1,8,50,47
3,2,8,50,47
3,4,6,40,47
3,9,8,50,47
3,10,1,10,47
4,3,6,40,47
4,5,8,50,47
4,6,9,60,47
4,9,6,40,47
5,4,8,50,47
5,6,6,40,47
5,9,8,50,47
6,4,9,60,47
6,5,6,40,47
6,7,6,40,47
6,8,9,60,47
6,9,6,40,47
7,1,15,100,47
7,6,6,40,47
7,8,6,40,47
7,9,8,50,47
8,1,11,70,47
8,6,9,60,47
8,7,6,40,47
9,1,8,50,47
9,2,11,70,47
9,3,8,50,47
9,4,6,40,47
9,5,8,50,47
9,6,6,40,47
9,7,8,50,47
10,3,1,10,47
0,1,1,10,48
0,11,0,0,48
1,2,6,40,48
1,3,8,50,48
1,7,15,100,48
1,8,11,70,48
1,9,8,50,48
1,11,1,10,48
2,1,6,40,48
2,3,8,50,48
2,9,11,70,48
3,1,8,50,48
3,2,8,50,48
3,4,6,40,48
3,9,8,50,48
3,10,1,10,48
4,3,6,40,48
4,5,8,50,48
4,6,9,60,48
4,9,6,40,48
5,4,8,50,48
5,6,6,40,48
5,9,8,50,48
6,4,9,60,48
6,5,6,40,48
6,7,6,40,48
6,8,9,60,48
6,9,6,40,48
7,1,15,100,48
7,6,6,40,48
7,8,6,40,48
7,9,8,50,48
8,1,11,70,48
8,6,9,60,48
8,7,6,40,48
9,1,8,50,48
9,2,11,70,48
9,3,8,50,48
9,4,6,40,48
9,5,8,50,48
9,6,6,40,48
9,7,8,50,48
10,3,1,10,48
0,1,1,10,49
0,11,0,0,49
1,2,6,40,49
1,3,8,50,49
1,7,15,100,49
1,8,11,70,49
1,9,8,50,49
1,11,1,10,49
2,1,6,40,49
2,3,8,50,49
2,9,11,70,49
3,1,8,50,49
3,2,8,50,49
3,4,6,40,49
3,9,8,50,49
3,10,1,10,49
4,3,6,40,49
4,5,8,50,49
4,6,9,60,49
4,9,6,40,49
5,4,8,50,49
5,6,6,40,49
5,9,8,50,49
6,4,9,60,49
6,5,6,40,49
6,7,6,40,49
6,8,9,60,49
6,9,6,40,49
7,1,15,100,49
7,6,6,40,49
7,8,6,40,49
7,9,8,50,49
8,1,11,70,49
8,6,9,60,49
8,7,6,40,49
9,1,8,50,49
9,2,11,70,49
9,3,8,50,49
9,4,6,40,49
9,5,8,50,49
9,6,6,40,49
9,7,8,50,49
10,3,1,10,49
0,1,1,10,50
0,11,0,0,50
1,2,6,40,50
1,3,8,50,50
1,7,15,100,50
1,8,11,70,50
1,9,8,50,50
1,11,1,10,50
2,1,6,40,50
2,3,8,50,50
2,9,11,70,50
3,1,8,50,50
3,2,8,50,50
3,4,6,40,50
3,9,8,50,50
3,10,1,10,50
4,3,6,40,50
4,5,8,50,50
4,6,9,60,50
4,9,6,40,50
5,4,8,50,50
5,6,6,40,50
5,9,8,50,50
6,4,9,60,50
6,5,6,40,50
6,7,6,40,50
6,8,9,60,50
6,9,6,40,50
7,1,15,100,50
7,6,6,40,50
7,8,6,40,50
7,9,8,50,50
8,1,11,70,50
8,6,9,60,50
8,7,6,40,50
9,1,8,50,50
9,2,11,70,50
9,3,8,50,50
9,4,6,40,50
9,5,8,50,50
9,6,6,40,50
9,7,8,50,50
10,3,1,10,50
0,1,1,10,51
0,11,0,0,51
1,2,6,40,51
1,3,8,50,51
1,7,15,100,51
1,8,10,70,51
1,9,8,50,51
1,11,1,10,51
2,1,6,40,51
2,3,8,50,51
2,9,10,70,51
3,1,8,50,51
3,2,8,50,51
3,4,6,40,51
3,9,8,50,51
3,10,1,10,51
4,3,6,40,51
4,5,8,50,51
4,6,9,60,51
4,9,6,40,51
5,4,8,50,51
5,6,6,40,51
5,9,8,50,51
6,4,9,60,51
6,5,6,40,51
6,7,6,40,51
6,8,9,60,51
6,9,6,40,51
7,1,15,100,51
7,6,6,40,51
7,8,6,40,51
7,9,8,50,51
8,1,10,70,51
8,6,9,60,51
8,7,6,40,51
9,1,8,50,51
9,2,10,70,51
9,3,8,50,51
9,4,6,40,51
9,5,8,50,51
9,6,6,40,51
9,7,8,50,51
10,3,1,10,51
0,1,1,10,52
0,11,0,0,52
1,2,6,40,52
1,3,7,50,52
1,7,14,100,52
1,8,10,70,52
1,9,7,50,52
1,11,1,10,52
2,1,6,40,52
2,3,7,50,52
2,9,10,70,52
3,1,7,50,52
3,2,7,50,52
3,4,6,40,52
3,9,7,50,52
3,10,1,10,52
4,3,6,40,52
4,5,7,50,52
4,6,9,60,52
4,9,6,40,52
5,4,7,50,52
5,6,6,40,52
5,9,7,50,52
6,4,9,60,52
6,5,6,40,52
6,7,6,40,52
6,8,9,60,52
6,9,6,40,52
7,1,14,100,52
7,6,6,40,52
7,8,6,40,52
7,9,7,50,52
8,1,10,70,52
8,6,9,60,52
8,7,6,40,52
9,1,7,50,52
9,2,10,70,52
9,3,7,50,52
9,4,6,40,52
9,5,7,50,52
9,6,6,40,52
9,7,7,50,52
10,3,1,10,52
0,1,1,10,53
0,11,0,0,53
1,2,6,40,53
1,3,7,50,53
1,7,14,100,53
1,8,10,70,53
1,9,7,50,53
1,11,1,10,53
2,1,6,40,53
2,3,7,50,53
2,9,10,70,53
3,1,7,50,53
3,2,7,50,53
3,4,6,40,53
3,9,7,50,53
3,10,1,10,53
4,3,6,40,53
4,5,7,50,53
4,6,9,60,53
4,9,6,40,53
5,4,7,50,53
5,6,6,40,53
5,9,7,50,53
6,4,9,60,53
6,5,6,40,53
6,7,6,40,53
6,8,9,60,53
6,9,6,40,53
7,1,14,100,53
7,6,6,40,53
7,8,6,40,53
7,9,7,50,53
8,1,10,70,53
8,6,9,60,53
8,7,6,40,53
9,1,7,50,53
9,2,10,70,53
9,3,7,50,53
9,4,6,40,53
9,5,7,50,53
9,6,6,40,53
9,7,7,50,53
10,3,1,10,53
0,1,1,10,54
0,11,0,0,54
1,2,6,40,54
1,3,7,50,54
1,7,14,100,54
1,8,10,70,54
1,9,7,50,54
1,11,1,10,54
2,1,6,40,54
2,3,7,50,54
2,9,10,70,54
3,1,7,50,54
3,2,7,50,54
3,4,6,40,54
3,9,7,50,54
3,10,1,10,54
4,3,6,40,54
4,5,7,50,54
4,6,9,60,54
4,9,6,40,54
5,4,7,50,54
5,6,6,40,54
5,9,7,50,54
6,4,9,60,54
6,5,6,40,54
6,7,6,40,54
6,8,9,60,54
6,9,6,40,54
7,1,14,100,54
7,6,6,40,54
7,8,6,40,54
7,9,7,50,54
8,1,10,70,54
8,6,9,60,54
8,7,6,40,54
9,1,7,50,54
9,2,10,70,54
9,3,7,50,54
9,4,6,40,54
9,5,7,50,54
9,6,6,40,54
9,7,7,50,54
10,3,1,10,54
0,1,1,10,55
0,11,0,0,55
1,2,6,40,55
1,3,7,50,55
1,7,14,100,55
1,8,10,70,55
1,9,7,50,55
1,11,1,10,55
2,1,6,40,55
2,3,7,50,55
2,9,10,70,55
3,1,7,50,55
3,2,7,50,55
3,4,6,40,55
3,9,7,50,55
3,10,1,10,55
4,3,6,40,55
4,5,7,50,55
4,6,9,60,55
4,9,6,40,55
5,4,7,50,55
5,6,6,40,55
5,9,7,50,55
6,4,9,60,55
6,5,6,40,55
6,7,6,40,55
6,8,9,60,55
6,9,6,40,55
7,1,14,100,55
7,6,6,40,55
7,8,6,40,55
7,9,7,50,55
8,1,10,70,55
8,6,9,60,55
8,7,6,40,55
9,1,7,50,55
9,2,10,70,55
9,3,7,50,55
9,4,6,40,55
9,5,7,50,55
9,6,6,40,55
9,7,7,50,55
10,3,1,10,55
0,1,1,10,56
0,11,0,0,56
1,2,6,40,56
1,3,7,50,56
1,7,14,100,56
1,8,10,70,56
1,9,7,50,56
1,11,1,10,56
2,1,6,40,56
2,3,7,50,56
2,9,10,70,56
3,1,7,50,56
3,2,7,50,56
3,4,6,40,56
3,9,7,50,56
3,10,1,10,56
4,3,6,40,56
4,5,7,50,56
4,6,9,60,56
4,9,6,40,56
5,4,7,50,56
5,6,6,40,56
5,9,7,50,56
6,4,9,60,56
6,5,6,40,56
6,7,6,40,56
6,8,9,60,56
6,9,6,40,56
7,1,14,100,56
7,6,6,40,56
7,8,6,40,56
7,9,7,50,56
8,1,10,70,56
8,6,9,60,56
8,7,6,40,56
9,1,7,50,56
9,2,10,70,56
9,3,7,50,56
9,4,6,40,56
9,5,7,50,56
9,6,6,40,56
9,7,7,50,56
10,3,1,10,56
0,1,1,10,57
0,11,0,0,57
1,2,6,40,57
1,3,7,50,57
1,7,14,100,57
1,8,10,70,57
1,9,7,50,57
1,11,1,10,57
2,1,6,40,57
2,3,7,50,57
2,9,10,70,57
3,1,7,50,57
3,2,7,50,57
3,4,6,40,57
3,9,7,50,57
3,10,1,10,57
4,3,6,40,57
4,5,7,50,57
4,6,8,60,57
4,9,6,40,57
5,4,7,50,57
5,6,6,40,57
5,9,7,50,57
6,4,8,60,57
6,5,6,40,57
6,7,6,40,57
6,8,8,60,57
6,9,6,40,57
7,1,14,100,57
7,6,6,40,57
7,8,6,40,57
7,9,7,50,57
8,1,10,70,57
8,6,8,60,57
8,7,6,40,57
9,1,7,50,57
9,2,10,70,57
9,3,7,50,57
9,4,6,40,57
9,5,7,50,57
9,6,6,40,57
9,7,7,50,57
10,3,1,10,57
0,1,1,10,58
0,11,0,0,58
1,2,6,40,58
1,3,7,50,58
1,7,14,100,58
1,8,10,70,58
1,9,7,50,58
1,11,1,10,58
2,1,6,40,58
2,3,7,50,58
2,9,10,70,58
3,1,7,50,58
3,2,7,50,58
3,4,6,40,58
3,9,7,50,58
3,10,1,10,58
4,3,6,40,58
4,5,7,50,58
4,6,8,60,58
4,9,6,40,58
5,4,7,50,58
5,6,6,40,58
5,9,7,50,58
6,4,8,60,58
6,5,6,40,58
6,7,6,40,58
6,8,8,60,58
6,9,6,40,58
7,1,14,100,58
7,6,6,40,58
7,8,6,40,58
7,9,7,50,58
8,1,10,70,58
8,6,8,60,58
8,7,6,40,58
9,1,7,50,58
9,2,10,70,58
9,3,7,50,58
9,4,6,40,58
9,5,7,50,58
9,6,6,40,58
9,7,7,50,58
10,3,1,10,58
0,1,1,10,59
0,11,0,0,59
1,2,6,40,59
1,3,7,50,59
1,7,14,100,59
1,8,10,70,59
1,9,7,50,59
1,11,1,10,59
2,1,6,40,59
2,3,7,50,59
2,9,10,70,59
3,1,7,50,59
3,2,7,50,59
3,4,6,40,59
3,9,7,50,59
3,10,1,10,59
4,3,6,40,59
4,5,7,50,59
4,6,8,60,59
4,9,6,40,59
5,4,7,50,59
5,6,6,40,59
5,9,7,50,59
6,4,8,60,59
6,5,6,40,59
6,7,6,40,59
6,8,8,60,59
6,9,6,40,59
7,1,14,100,59
7,6,6,40,59
7,8,6,40,59
7,9,7,50,59
8,1,10,70,59
8,6,8,60,59
8,7,6,40,59
9,1,7,50,59
9,2,10,70,59
9,3,7,50,59
9,4,6,40,59
9,5,7,50,59
9,6,6,40,59
9,7,7,50,59
10,3,1,10,59
0,1,1,10,60
0,11,0,0,60
1,2,6,40,60
1,3,7,50,60
1,7,14,100,60
1,8,10,70,60
1,9,7,50,60
1,11,1,10,60
2,1,6,40,60
2,3,7,50,60
2,9,10,70,60
3,1,7,50,60
3,2,7,50,60
3,4,6,40,60
3,9,7,50,60
3,10,1,10,60
4,3,6,40,60
4,5,7,50,60
4,6,8,60,60
4,9,6,40,60
5,4,7,50,60
5,6,6,40,60
5,9,7,50,60
6,4,8,60,60
6,5,6,40,60
6,7,6,40,60
6,8,8,60,60
6,9,6,40,60
7,1,14,100,60
7,6,6,40,60
7,8,6,40,60
7,9,7,50,60
8,1,10,70,60
8,6,8,60,60
8,7,6,40,60
9,1,7,50,60
9,2,10,70,60
9,3,7,50,60
9,4,6,40,60
9,5,7,50,60
9,6,6,40,60
9,7,7,50,60
10,3,1,10,60
